(set-logic QF_S)
(declare-fun var0 () Int)
(declare-fun var1 () Int)
(declare-fun var2 () String)
(declare-fun var3 () String)
(declare-fun var4 () Int)
(declare-fun var5 () Int)
(declare-fun var6 () String)
(declare-fun var7 () String)
(assert (> var0 var1))
(assert (str.prefixof var2 var3))
(assert (< var4 var5))
(assert (str.suffixof (str.at (str.replace var6 var7 var7) (str.to.int var6)) (str.substr (str.at var3 24) (str.to.int var2) (str.len var3))))
(check-sat)